115658
48,33,56,2,11,54,22,42,6,26,32,15,37,1,29,34,27,7,82,78,5,60,14,41,24,68,77,40,51,38,62,74,10,39,31,8,69,13,61,79,19,66,75,25,35,65,70,20,53,45,44,28,9,0,63,72,12,36,17,47,23,30,64,49,3,52,58,67,43,21,4,18,81,73,57,76,16,55,50,71,80,59,46,48